p cnf 130 160
1 7 28 51 0
1 7 28 -51 0
-1 7 28 52 0
-1 7 28 -52 0
-7 13 35 53 0
-7 13 35 -53 0
-7 -13 28 54 0
-7 -13 28 -54 0
-28 35 37 55 0
-28 35 37 -55 0
-28 35 -37 56 0
-28 35 -37 -56 0
2 -35 43 57 0
2 -35 43 -57 0
2 -35 -43 58 0
2 -35 -43 -58 0
-2 -35 38 59 0
-2 -35 38 -59 0
-2 9 -38 60 0
-2 9 -38 -60 0
-9 -24 -38 61 0
-9 -24 -38 -61 0
-9 36 -38 62 0
-9 36 -38 -62 0
-21 -36 -38 63 0
-21 -36 -38 -63 0
12 24 -36 64 0
12 24 -36 -64 0
-12 21 31 65 0
-12 21 31 -65 0
6 -12 -31 66 0
6 -12 -31 -66 0
-6 -31 42 67 0
-6 -31 42 -67 0
-6 33 -42 68 0
-6 33 -42 -68 0
-18 -33 -42 69 0
-18 -33 -42 -69 0
4 18 -33 70 0
4 18 -33 -70 0
-17 18 24 71 0
-17 18 24 -71 0
-4 -17 -24 72 0
-4 -17 -24 -72 0
-4 -16 17 73 0
-4 -16 17 -73 0
17 19 21 74 0
17 19 21 -74 0
-4 19 -21 75 0
-4 19 -21 -75 0
17 -19 -20 76 0
17 -19 -20 -76 0
-19 20 -49 77 0
-19 20 -49 -77 0
20 -47 49 78 0
20 -47 49 -78 0
20 26 47 79 0
20 26 47 -79 0
20 25 -26 80 0
20 25 -26 -80 0
14 -25 -26 81 0
14 -25 -26 -81 0
-14 16 44 82 0
-14 16 44 -82 0
-16 -25 44 83 0
-16 -25 44 -83 0
-14 34 -44 84 0
-14 34 -44 -84 0
3 -34 -44 85 0
3 -34 -44 -85 0
-1 -3 -34 86 0
-1 -3 -34 -86 0
-3 -34 41 87 0
-3 -34 41 -87 0
23 39 -41 88 0
23 39 -41 -88 0
-3 23 -39 89 0
-3 23 -39 -89 0
-23 40 -41 90 0
-23 40 -41 -90 0
-15 -23 49 91 0
-15 -23 49 -91 0
-15 -40 -49 92 0
-15 -40 -49 -92 0
15 -22 -40 93 0
15 -22 -40 -93 0
8 15 22 94 0
8 15 22 -94 0
-5 -8 22 95 0
-5 -8 22 -95 0
5 -8 30 96 0
5 -8 30 -96 0
-8 29 -30 97 0
-8 29 -30 -97 0
-8 -13 -30 98 0
-8 -13 -30 -98 0
5 -29 -37 99 0
5 -29 -37 -99 0
13 -32 37 100 0
13 -32 37 -100 0
32 37 46 101 0
32 37 46 -101 0
32 39 -46 102 0
32 39 -46 -102 0
10 -39 -46 103 0
10 -39 -46 -103 0
-10 27 -39 104 0
-10 27 -39 -104 0
-10 -27 48 105 0
-10 -27 48 -105 0
11 -27 -48 106 0
11 -27 -48 -106 0
-11 -48 50 107 0
-11 -48 50 -107 0
-11 -45 -50 108 0
-11 -45 -50 -108 0
-28 45 -50 109 0
-28 45 -50 -109 0
-43 45 -50 110 0
-43 45 -50 -110 0
7 43 45 111 0
7 43 45 -111 0
10 11 26 112 0
10 11 26 -112 0
14 -47 48 113 0
14 -47 48 -113 0
39 43 44 114 0
39 43 44 -114 0
8 27 42 115 0
8 27 42 -115 0
9 -20 38 116 0
9 -20 38 -116 0
1 19 50 117 0
1 19 50 -117 0
6 31 36 118 0
6 31 36 -118 0
3 6 -45 119 0
3 6 -45 -119 0
13 -22 31 120 0
13 -22 31 -120 0
26 46 47 121 0
26 46 47 -121 0
5 12 40 122 0
5 12 40 -122 0
-18 25 33 123 0
-18 25 33 -123 0
2 16 30 124 0
2 16 30 -124 0
4 -15 33 125 0
4 -15 33 -125 0
25 29 40 126 0
25 29 40 -126 0
-18 36 43 127 0
-18 36 43 -127 0
5 -5 -29 128 0
5 -5 -29 -128 0
-15 -32 41 129 0
-15 -32 41 -129 0
21 24 34 130 0
21 24 34 -130 0

